\ Model matlab
\ LP format - for model browsing. Use MPS format to capture full model detail.
Minimize
  - x_1 - x_2 - x_3 - x_4 - x_5 - x_6
Subject To
 LP_1: 4.71405 x_1 - 4.71405 x_2 - 2 x_3 + x_4 - x_5 + 4.71405 x_6 <= 0
 LP_2: - 17.6621 x_2 + x_3 + 4.7467 x_4 <= -5.7502e-13
 LP_3: - 1.41043e-13 x_1 - 1.3145e-13 x_2 - x_3 - x_5 + 1.112e-13 x_6
   <= 3.63265e-14
 LP_4: - x_3 - x_4 <= -1.15818e-13
 LP_5: - 4.71405 x_1 + 4.71405 x_2 - 5.55694 x_3 - 4.55694 x_4 + x_5
   + 4.71405 x_6 <= -7.99943e-14
 LP_6: - 4.71405 x_1 + 4.71405 x_2 - 2 x_3 + x_4 - x_5 - 4.71405 x_6
   <= 6.82121e-14
 LP_7: - 29.849 x_1 - 7.33192 x_3 - x_4 <= -4.84469e-14
 LP_8: - 93.6029 x_1 - 4.71405 x_2 - 18.5931 x_3 + 3.26312 x_4 + x_5
   - 4.71405 x_6 <= -1.42109e-13
 LP_9: - 8.83105 x_1 - 8.83105 x_2 + x_3 + 6.62005 x_4 + 1.87335 x_5
   - 8.83105 x_6 <= -5.83339e-13
 LP_10: - 6.20302 x_1 - 7.51888 x_2 - 2.595 x_3 - x_4 - 1.31586 x_5
   + 6.20302 x_6 <= -1.33704e-14
 LP_11: - 4.71405 x_1 - 4.71405 x_2 - 2.31586 x_3 - 1.31586 x_4 - x_5
   + 4.71405 x_6 <= -1.08615e-14
 LP_12: x_4 + x_5 <= -3.12639e-14
 LP_13: 9.33301 x_1 - 9.33301 x_2 + x_3 + 2.97983 x_4 + 1.97983 x_5
   - 9.33301 x_6 <= -1.12381e-12
 LP_14: 6.20302 x_1 + 4.88716 x_2 - 2.31586 x_3 - x_4 - 1.03672 x_5
   - 6.20302 x_6 <= -3.00401e-13
 LP_15: 84.1748 x_1 - 4.71405 x_2 - 16.5931 x_3 + 1.26312 x_4 + x_5
   - 4.71405 x_6 <= -2.65813e-12
 LP_16: 4.71405 x_1 + 4.71405 x_2 - 2.31586 x_3 - 1.31586 x_4 - x_5
   - 4.71405 x_6 <= -2.21287e-13
 LP_17: 2.90894 x_2 - 1.61708 x_3 - x_4 <= 1.08614e-15
 LP_18: 4.71405 x_1 + 4.71405 x_2 - 5.24108 x_3 - 2.24108 x_4 + x_5
   + 4.71405 x_6 <= -7.23232e-14
 LP_19: 29.849 x_1 - 1.02044e-13 x_2 - 7.33192 x_3 - x_4 <= -8.90576e-13
 LP_20: - x_4 - x_5 <= 20
 LP_21: x_3 + x_5 <= 20
 LP_22: x_3 + x_4 <= 20
Bounds
 x_1 free
 x_2 free
 x_3 free
 x_4 free
 x_5 free
 x_6 free
End
